c User generated cnf file
p cnf 14 45
5 12 -7 0 
13 5 -5 0 
5 -1 12 0 
-13 8 12 0 
-14 9 12 0 
13 -9 2 0 
9 -9 11 0 
8 6 -3 0 
4 2 -7 0 
13 2 -5 0 
4 14 -3 0 
13 2 -12 0 
8 -12 8 0 
12 12 -5 0 
-6 9 10 0 
-3 2 14 0 
11 -6 4 0 
5 3 -4 0 
-2 10 5 0 
13 4 -13 0 
-9 10 8 0 
5 11 -12 0 
13 12 -5 0 
13 -5 9 0 
7 7 -8 0 
12 6 -7 0 
7 -10 11 0 
11 3 -6 0 
5 11 -9 0 
4 -7 8 0 
10 -7 3 0 
4 9 -9 0 
8 6 -7 0 
4 12 -2 0 
13 -2 6 0 
13 1 -14 0 
-3 5 7 0 
13 12 -14 0 
-9 5 12 0 
12 -3 11 0 
9 13 -11 0 
7 8 -13 0 
9 1 -9 0 
1 -1 5 0 
12 -3 4 0 
